Problem:    
Rows:       260
Columns:    89 (72 integer, 72 binary)
Non-zeros:  974
Status:     INTEGER OPTIMAL
Objective:  value = 84.573775 (MINimum)

   No.   Row name        Activity     Lower bound   Upper bound
------ ------------    ------------- ------------- -------------
     1 r.5                   84.5738             0               
     2 r.6                   45.1947      -974.702               
     3 r.7                   1084.57             0               
     4 r.8                  -959.531      -962.832               
     5 r.9                   1084.57             0               
     6 r.10                 -941.799      -974.872               
     7 r.11                  84.5738             0               
     8 r.12                 -960.064      -963.365               
     9 r.13                  1084.57             0               
    10 r.14                 -994.695      -999.241               
    11 r.15                  84.5738             0               
    12 r.16                  45.0327      -995.269               
    13 r.17                  1084.57             0               
    14 r.18                 -995.454      -998.755               
    15 r.19                  84.5738             0               
    16 r.20                  58.2011      -992.848               
    17 r.21                  1084.57             0               
    18 r.22                 -969.371      -987.816               
    19 r.23                  84.5738             0               
    20 r.24                  45.0327      -981.228               
    21 r.25                  1084.57             0               
    22 r.26                 -999.143      -999.143               
    23 r.27                  84.5738             0               
    24 r.28                 -997.581      -997.581               
    25 r.29                  1084.57             0               
    26 r.30                 -915.426      -973.627               
    27 r.31                  84.5738             0               
    28 r.32                  84.5738      -968.093               
    29 r.33                  84.5738             0               
    30 r.34                  84.5738       -952.77               
    31 r.35                  1084.57             0               
    32 r.36                 -915.426      -958.177               
    33 r.37                        1             1             = 
    34 r.38                        1             1             = 
    35 r.39                        1             1             = 
    36 r.40                        1             1             = 
    37 r.41                        1             1             = 
    38 r.42                        1             1             = 
    39 r.43                        1             1             = 
    40 r.44                        1             1             = 
    41 r.45                     1001             2               
    42 r.46                    -1001         -1001               
    43 r.47                  2015.45      -974.872               
    44 r.48                     1001             2               
    45 r.49                    -1001         -1001               
    46 r.50                  997.185      -963.365               
    47 r.51                     1001             2               
    48 r.52                    -1001         -1001               
    49 r.53                  1962.55      -999.241               
    50 r.54                     1001             2               
    51 r.55                    -1001         -1001               
    52 r.56                  2002.28      -995.269               
    53 r.57                     1001             2               
    54 r.58                    -1001         -1001               
    55 r.59                   1961.8      -998.755               
    56 r.60                     1001             2               
    57 r.61                    -1001         -1001               
    58 r.62                  2015.45      -992.848               
    59 r.63                     1001             2               
    60 r.64                    -1001         -1001               
    61 r.65                  1987.88      -987.816               
    62 r.66                     1001             2               
    63 r.67                    -1001         -1001               
    64 r.68                  2002.28      -981.228               
    65 r.69                   41.894      -974.702               
    66 r.70                 -962.832      -962.832               
    67 r.71                  1045.06      -974.702               
    68 r.72                  40.3312      -962.832               
    69 r.73                 -958.177      -973.627               
    70 r.74                  41.8231      -968.093               
    71 r.75                 -958.177      -973.627               
    72 r.76                  41.8231      -968.093               
    73 r.77                  41.8231       -952.77               
    74 r.78                 -958.177      -958.177               
    75 r.79                  41.8231       -952.77               
    76 r.80                 -958.177      -958.177               
    77 r.81                     1001             2               
    78 r.82                    -1001         -1001               
    79 r.83                  1986.99       25.2976               
    80 r.84                     1001             2               
    81 r.85                    -1001         -1001               
    82 r.86                  3000.53       37.1679               
    83 r.87                        2             2               
    84 r.88                       -2         -1001               
    85 r.89                  -52.896      -999.241               
    86 r.90                     1000             2               
    87 r.91                    -1000         -1001               
    88 r.92                   3005.1      -995.269               
    89 r.93                        2             2               
    90 r.94                       -2         -1001               
    91 r.95                 -53.6553      -998.755               
    92 r.96                     1000             2               
    93 r.97                    -1000         -1001               
    94 r.98                  3018.26      -992.848               
    95 r.99                        2             2               
    96 r.100                      -2         -1001               
    97 r.101                -27.5723      -987.816               
    98 r.102                    1000             2               
    99 r.103                   -1000         -1001               
   100 r.104                  3005.1      -981.228               
   101 r.105                  -945.1      -974.872               
   102 r.106                -963.365      -963.365               
   103 r.107                 58.0636      -974.872               
   104 r.108                 39.7986      -963.365               
   105 r.109                -973.627      -973.627               
   106 r.110                 26.3727      -968.093               
   107 r.111                 44.6377      -973.627               
   108 r.112                 1044.64      -968.093               
   109 r.113                    1001             2               
   110 r.114                   -1001         -1001               
   111 r.115                 2026.37       -952.77               
   112 r.116                    1001             2               
   113 r.117                   -1001         -1001               
   114 r.118                 3044.64      -958.177               
   115 r.119                    1001             2               
   116 r.120                   -1001         -1001               
   117 r.121                 2037.45       25.2976               
   118 r.122                    1001             2               
   119 r.123                   -1001         -1001               
   120 r.124                 1997.72       37.1679               
   121 r.125                       2             2               
   122 r.126                      -2         -1001               
   123 r.127                  50.452       25.1283               
   124 r.128                    1000             2               
   125 r.129                   -1000         -1001               
   126 r.130                 997.185       36.6354               
   127 r.131                       2             2               
   128 r.132                      -2         -1001               
   129 r.133                -3.20335      -998.755               
   130 r.134                    1000             2               
   131 r.135                   -1000         -1001               
   132 r.136                 2015.45      -992.848               
   133 r.137                       2             2               
   134 r.138                      -2         -1001               
   135 r.139                 -977.12      -987.816               
   136 r.140                    1000             2               
   137 r.141                   -1000         -1001               
   138 r.142                 2002.28      -981.228               
   139 r.143                -997.996      -999.241               
   140 r.144                  41.732      -995.269               
   141 r.145                  5.1676      -999.241               
   142 r.146                  1044.9      -995.269               
   143 r.147                -923.175      -973.627               
   144 r.148                 76.8247      -968.093               
   145 r.149                -958.177      -973.627               
   146 r.150                 41.8231      -968.093               
   147 r.151                 76.8247       -952.77               
   148 r.152                -923.175      -958.177               
   149 r.153                 41.8231       -952.77               
   150 r.154                -958.177      -958.177               
   151 r.155                    1001             2               
   152 r.156                   -1001         -1001               
   153 r.157                 2040.65       25.2976               
   154 r.158                    1001             2               
   155 r.159                   -1001         -1001               
   156 r.160                 1982.27       37.1679               
   157 r.161                       2             2               
   158 r.162                      -2         -1001               
   159 r.163                 53.6553       25.1283               
   160 r.164                    1000             2               
   161 r.165                   -1000         -1001               
   162 r.166                 981.735       36.6354               
   163 r.167                       2             2               
   164 r.168                      -2         -1001               
   165 r.169                0.759322      0.759322               
   166 r.170                    1000             2               
   167 r.171                   -1000         -1001               
   168 r.172                 1986.83       4.73084               
   169 r.173                       2             2               
   170 r.174                      -2         -1001               
   171 r.175                -973.917      -987.816               
   172 r.176                    1000             2               
   173 r.177                   -1000         -1001               
   174 r.178                 1986.83      -981.228               
   175 r.179                -998.755      -998.755               
   176 r.180                 54.9003      -992.848               
   177 r.181                 4.40828      -998.755               
   178 r.182                 1058.06      -992.848               
   179 r.183                -919.972      -973.627               
   180 r.184                  80.028      -968.093               
   181 r.185                -973.627      -973.627               
   182 r.186                 26.3727      -968.093               
   183 r.187                    1001             2               
   184 r.188                   -1001         -1001               
   185 r.189                 2080.03       -952.77               
   186 r.190                    1001             2               
   187 r.191                   -1001         -1001               
   188 r.192                 2026.37      -958.177               
   189 r.193                    1001             2               
   190 r.194                   -1001         -1001               
   191 r.195                 2012.12       25.2976               
   192 r.196                    1001             2               
   193 r.197                   -1001         -1001               
   194 r.198                 1997.72       37.1679               
   195 r.199                       2             2               
   196 r.200                      -2         -1001               
   197 r.201                 25.1283       25.1283               
   198 r.202                    1000             2               
   199 r.203                   -1000         -1001               
   200 r.204                 997.185       36.6354               
   201 r.205                       2             2               
   202 r.206                      -2         -1001               
   203 r.207                 972.232      0.759322               
   204 r.208                    1000             2               
   205 r.209                   -1000         -1001               
   206 r.210                 2002.28       4.73084               
   207 r.211                       2             2               
   208 r.212                      -2         -1001               
   209 r.213                 971.473       1.24502               
   210 r.214                    1000             2               
   211 r.215                   -1000         -1001               
   212 r.216                 2015.45       7.15186               
   213 r.217                -972.672      -987.816               
   214 r.218                  41.732      -981.228               
   215 r.219                 30.4913      -987.816               
   216 r.220                  1044.9      -981.228               
   217 r.221                       2             2               
   218 r.222                      -2         -1001               
   219 r.223                -948.499      -973.627               
   220 r.224                    1000             2               
   221 r.225                   -1000         -1001               
   222 r.226                 2041.82      -968.093               
   223 r.227                  51.501       -952.77               
   224 r.228                -948.499      -958.177               
   225 r.229                 41.8231       -952.77               
   226 r.230                -958.177      -958.177               
   227 r.231                -918.727      -973.627               
   228 r.232                  81.273      -968.093               
   229 r.233                 84.4363      -973.627               
   230 r.234                 1084.44      -968.093               
   231 r.235                       2             2               
   232 r.236                      -2         -1001               
   233 r.237                 946.055       12.1838               
   234 r.238                    1000             2               
   235 r.239                   -1000         -1001               
   236 r.240                 1960.46       18.7716               
   237 r.241                    1001             2               
   238 r.242                   -1001         -1001               
   239 r.243                    2000       -952.77               
   240 r.244                    1001             2               
   241 r.245                   -1001         -1001               
   242 r.246                    2000      -958.177               
   243 r.247                    1001             2               
   244 r.248                   -1001         -1001               
   245 r.249                 1973.63       25.1283               
   246 r.250                    1001             2               
   247 r.251                   -1001         -1001               
   248 r.252                 955.362       36.6354               
   249 r.253                    1001             2               
   250 r.254                   -1001         -1001               
   251 r.255                 1919.97       1.24502               
   252 r.256                    1001             2               
   253 r.257                   -1001         -1001               
   254 r.258                 1973.63       7.15186               
   255 r.259                    1001             2               
   256 r.260                   -1001         -1001               
   257 r.261                    2000       26.3727               
   258 r.262                    1001             2               
   259 r.263                   -1001         -1001               
   260 r.264                    2000       31.9065               

   No. Column name       Activity     Lower bound   Upper bound
------ ------------    ------------- ------------- -------------
     1 tt                    84.5738             0               
     2 s_1_1        *              0             0             1 
     3 t_1_1                 41.8231             0               
     4 s_1_8        *              0             0             1 
     5 s_1_7        *              1             0             1 
     6 s_2_1        *              1             0             1 
     7 t_2_1                 41.8231             0               
     8 s_2_8        *              1             0             1 
     9 s_2_7        *              0             0             1 
    10 s_1_2        *              1             0             1 
    11 t_1_2                 26.3727             0               
    12 s_2_2        *              0             0             1 
    13 t_2_2                 1044.64             0               
    14 s_1_3        *              1             0             1 
    15 t_1_3                 76.8247             0               
    16 s_2_3        *              0             0             1 
    17 t_2_3                 41.8231             0               
    18 s_1_4        *              1             0             1 
    19 t_1_4                  80.028             0               
    20 s_2_4        *              0             0             1 
    21 t_2_4                 26.3727             0               
    22 s_1_5        *              1             0             1 
    23 t_1_5                  51.501             0               
    24 s_2_5        *              0             0             1 
    25 t_2_5                 41.8231             0               
    26 s_1_6        *              1             0             1 
    27 t_1_6                  81.273             0               
    28 s_2_6        *              0             0             1 
    29 t_2_6                 1084.44             0               
    30 t_1_7                       0             0               
    31 t_2_7                       0             0               
    32 t_1_8                       0             0               
    33 t_2_8                       0             0               
    34 r_1_1_2      *              1             0             1 
    35 u_1_1_2      *              0             0             1 
    36 r_2_1_2      *              1             0             1 
    37 u_2_1_2      *              0             0             1 
    38 r_1_1_3      *              1             0             1 
    39 u_1_1_3      *              0             0             1 
    40 r_2_1_3      *              1             0             1 
    41 u_2_1_3      *              0             0             1 
    42 r_1_1_4      *              1             0             1 
    43 u_1_1_4      *              0             0             1 
    44 r_2_1_4      *              1             0             1 
    45 u_2_1_4      *              0             0             1 
    46 r_1_1_5      *              1             0             1 
    47 u_1_1_5      *              0             0             1 
    48 r_2_1_5      *              1             0             1 
    49 u_2_1_5      *              0             0             1 
    50 r_1_2_3      *              0             0             1 
    51 u_1_2_3      *              0             0             1 
    52 r_2_2_3      *              1             0             1 
    53 u_2_2_3      *              0             0             1 
    54 r_1_2_4      *              0             0             1 
    55 u_1_2_4      *              0             0             1 
    56 r_2_2_4      *              1             0             1 
    57 u_2_2_4      *              0             0             1 
    58 r_1_2_5      *              0             0             1 
    59 u_1_2_5      *              0             0             1 
    60 r_2_2_5      *              1             0             1 
    61 u_2_2_5      *              0             0             1 
    62 r_1_2_8      *              1             0             1 
    63 u_1_2_8      *              0             0             1 
    64 r_2_2_8      *              1             0             1 
    65 u_2_2_8      *              0             0             1 
    66 r_1_3_4      *              0             0             1 
    67 u_1_3_4      *              0             0             1 
    68 r_2_3_4      *              1             0             1 
    69 u_2_3_4      *              0             0             1 
    70 r_1_3_5      *              0             0             1 
    71 u_1_3_5      *              1             0             1 
    72 r_2_3_5      *              1             0             1 
    73 u_2_3_5      *              0             0             1 
    74 r_1_4_5      *              0             0             1 
    75 u_1_4_5      *              1             0             1 
    76 r_2_4_5      *              1             0             1 
    77 u_2_4_5      *              0             0             1 
    78 r_1_4_8      *              1             0             1 
    79 u_1_4_8      *              0             0             1 
    80 r_2_4_8      *              1             0             1 
    81 u_2_4_8      *              0             0             1 
    82 r_1_5_7      *              0             0             1 
    83 u_1_5_7      *              1             0             1 
    84 r_2_5_7      *              1             0             1 
    85 u_2_5_7      *              0             0             1 
    86 r_1_7_8      *              1             0             1 
    87 u_1_7_8      *              0             0             1 
    88 r_2_7_8      *              1             0             1 
    89 u_2_7_8      *              0             0             1 

Integer feasibility conditions:

KKT.PE: max.abs.err = 4.55e-13 on row 82
        max.rel.err = 1.10e-16 on row 6
        High quality

KKT.PB: max.abs.err = 1.14e-13 on row 66
        max.rel.err = 9.59e-15 on row 165
        High quality

End of output
